[VALIDATOR STDOUT]
Checking plan: /home/ubuntu/Safety-gen/benchmark_problems/spanner/optic_results/spanner-s8-n7-l12-s8001.plan
Plan executed successfully - checking goal
Goal not satisfied
Plan invalid


Failed plans:
 /home/ubuntu/Safety-gen/benchmark_problems/spanner/optic_results/spanner-s8-n7-l12-s8001.plan
